n_clientes = 5;
n_sitios = 5;
costo_fijo_sitios = [12.49, 5.2, 6.03, 12.46, 14.79];
capacidad_maxima_sitios = [11, 12, 11, 14, 7];
demanda_clientes = [5.28, 13.83, 7.04, 7.07, 7.82];
beneficio_por_unidad = 
[|12.09,-5.67,14.69,-7.38,-8.45
|8.26,10.51,11.44,8.78,6.61
|-13.62,5.69,13.53,11.47,11.39
|11.67,13.76,-13.17,-10.23,14.05
|7.29,5.16,7.46,-12.71,7.43|];
